 $CONTRL 
  ICHARG=0 
  SCFTYP=RHF 
  RUNTYP=SADPOINT
  UNITS=ANGS 
 $END
 $SYSTEM 
  TIMLIM=1440 
 $END
 $FORCE
  METHOD=ANALYTIC
 $END
 $BASIS 
  GBASIS=N31 
  NGAUSS=6 
  NDFUNC=1 
 $END
 $GUESS 
  GUESS=HUCKEL 
 $END
 $STATPT 
  NSTEP=200 
  IFOLOW=1
  HESS=CALC
 $END
 $DATA
Saddle point
C1
 C           6.0   0.4902528828   2.1945414356   0.6736462414
 H           1.0  -0.2313625003   2.9920041626   0.7673281001
 H           1.0   0.6830215324   1.9851282767  -0.3678947216
 H           1.0   1.4083615312   2.4720804612   1.1662773592
 SE         34.0  -0.1682443479   0.5907266940   1.5812754054
 H           1.0  -1.3909242510   0.5024505352   0.7738165448
 O           8.0   2.0966712567   0.5446871637   2.6386500548
 O           8.0   3.2924520561   1.1096016283   3.0921494595
 H           1.0   2.3754199059  -0.2937884022   2.2888615415
 H           1.0   3.1591758470   1.1309956040   4.0322327375
 $END